c
c start with comments
c
p cnf 51 40
5 34 32 19 0
27 30 0
43 9 0
-5 51 0
35 -31 19 5 0
4 -10 0
-24 47 -21 40 -48 0
-11 50 -24 -21 0
-17 10 0
-42 -50 -30 0
-53 45 -18 0
19 -48 45 0
49 48 -16 0
3 -43 -41 0
-46 18 41 47 0
-44 -33 0
2 14 -47 0
-18 -52 12 0
-36 -26 0
17 20 0
19 -16 -43 0
47 -6 22 -25 24 0
-22 -29 -12 -20 13 0
-31 24 -11 0
40 -34 14 50 -12 0
50 -30 13 40 24 -53 0
26 -1 0
-15 -35 0
11 -2 0
-32 39 16 0
-19 36 0
-7 -8 0
-4 -23 0
-50 -34 -45 -46 0
52 52 15 -32 0
-14 -38 22 0
8 42 0
31 -16 3 0
7 50 -29 44 15 0
3 -20 -34 7 0